NAME: rat783_588_195_4
COMMENT: Rattled grid (Pulleyblank). FACILITY = 1, USER = 0
TYPE: TSP
DIMENSION: 783
EDGE_WEIGHT_TYPE: EUC_2D
NODE_COORD_SECTION:
1 13 6 0
2 49 6 0
3 105 6 1
4 239 6 0
5 110 7 0
6 270 7 0
7 53 8 1
8 131 8 0
9 88 9 0
10 97 9 0
11 244 9 1
12 78 10 1
13 254 10 0
14 174 11 0
15 10 13 0
16 200 13 0
17 29 14 1
18 62 14 0
19 123 14 0
20 141 15 1
21 201 15 0
22 167 17 0
23 39 18 1
24 219 18 1
25 14 19 1
26 200 19 0
27 204 19 0
28 220 19 0
29 100 20 0
30 127 20 0
31 151 21 1
32 188 21 0
33 88 22 0
34 231 23 0
35 167 24 0
36 140 25 0
37 26 28 0
38 253 30 0
39 101 33 0
40 270 33 0
41 44 35 1
42 181 35 1
43 245 35 0
44 211 37 0
45 30 38 0
46 54 38 0
47 69 38 0
48 116 38 1
49 7 39 0
50 159 39 0
51 189 39 0
52 13 40 0
53 73 40 0
54 175 40 1
55 213 40 0
56 2 41 0
57 25 41 0
58 77 41 1
59 142 41 0
60 222 41 0
61 143 42 1
62 165 45 0
63 94 46 1
64 125 46 1
65 67 49 1
66 237 49 0
67 46 51 0
68 150 53 0
69 200 53 0
70 38 55 0
71 132 55 0
72 179 55 0
73 228 55 0
74 107 56 0
75 243 56 0
76 82 57 0
77 113 57 1
78 207 58 0
79 261 58 0
80 37 59 0
81 51 59 1
82 163 59 0
83 71 60 0
84 255 60 0
85 140 62 0
86 154 62 0
87 248 62 0
88 8 63 0
89 104 63 0
90 208 63 1
91 222 64 1
92 180 65 0
93 196 65 0
94 68 66 0
95 96 68 1
96 232 68 1
97 24 69 0
98 84 69 0
99 138 70 0
100 40 71 0
101 267 72 0
102 121 73 0
103 180 73 1
104 217 75 0
105 120 76 0
106 259 78 0
107 58 79 0
108 120 80 0
109 250 80 0
110 20 81 1
111 59 81 1
112 107 82 0
113 218 82 0
114 246 83 0
115 31 86 1
116 98 89 0
117 15 90 1
118 140 90 0
119 226 91 0
120 75 92 0
121 154 92 0
122 240 93 0
123 20 94 0
124 160 94 0
125 0 95 0
126 149 95 0
127 45 96 1
128 113 97 0
129 177 97 0
130 185 97 0
131 204 97 0
132 200 98 0
133 89 99 1
134 260 99 0
135 262 99 1
136 60 101 0
137 89 101 0
138 136 101 0
139 17 103 0
140 110 103 0
141 190 104 1
142 240 104 1
143 90 105 0
144 164 105 0
145 221 106 0
146 3 107 1
147 24 107 0
148 231 107 0
149 254 107 0
150 154 109 0
151 63 110 0
152 77 110 0
153 47 111 1
154 181 111 0
155 31 114 0
156 60 115 0
157 126 117 0
158 207 117 0
159 170 118 0
160 36 119 1
161 81 120 0
162 61 121 0
163 111 121 0
164 140 121 1
165 144 121 0
166 217 121 0
167 188 122 1
168 230 122 1
169 119 124 0
170 237 127 1
171 266 128 0
172 17 129 0
173 151 129 0
174 220 129 0
175 42 130 0
176 103 130 0
177 252 131 0
178 210 133 1
179 99 134 0
180 20 135 1
181 249 135 0
182 137 137 1
183 170 137 0
184 59 138 0
185 0 139 0
186 20 139 0
187 76 140 0
188 174 140 1
189 195 140 0
190 121 141 0
191 194 141 0
192 212 141 1
193 267 141 0
194 248 142 0
195 46 146 1
196 52 146 0
197 182 146 0
198 100 147 0
199 259 147 0
200 109 148 0
201 170 149 1
202 78 151 0
203 200 151 0
204 70 152 0
205 31 154 0
206 120 154 0
207 226 155 1
208 82 156 0
209 140 156 0
210 158 156 0
211 138 157 0
212 137 159 0
213 171 159 0
214 240 160 0
215 2 161 0
216 13 161 0
217 113 161 0
218 255 163 0
219 141 164 0
220 201 165 1
221 175 166 1
222 60 167 0
223 232 167 0
224 84 168 0
225 124 168 0
226 170 169 0
227 58 170 0
228 190 171 1
229 187 173 0
230 36 174 0
231 46 174 0
232 107 174 1
233 116 174 1
234 269 174 0
235 3 175 0
236 14 175 0
237 158 178 0
238 249 178 1
239 21 179 1
240 95 179 0
241 213 180 0
242 11 181 0
243 76 181 0
244 179 181 0
245 224 182 0
246 28 184 0
247 236 184 0
248 51 186 0
249 60 186 0
250 119 186 0
251 148 187 0
252 218 187 0
253 140 188 0
254 266 188 0
255 30 190 0
256 76 191 0
257 163 191 0
258 94 192 0
259 103 193 0
260 188 193 0
261 228 193 0
262 152 194 0
263 193 197 0
264 246 197 0
265 252 197 0
266 1 198 0
267 73 198 0
268 86 198 0
269 125 198 0
270 7 199 0
271 206 199 0
272 207 199 0
273 44 201 0
274 55 201 0
275 158 201 1
276 30 203 0
277 25 204 1
278 44 204 0
279 231 204 1
280 260 204 0
281 120 207 0
282 175 207 0
283 185 207 0
284 228 207 0
285 265 209 0
286 68 210 1
287 166 212 0
288 191 212 0
289 15 215 0
290 109 215 0
291 82 216 0
292 130 217 0
293 97 218 0
294 37 219 1
295 147 219 0
296 238 219 1
297 243 219 0
298 219 220 1
299 68 221 0
300 113 221 0
301 171 222 0
302 23 223 0
303 130 223 0
304 243 224 0
305 6 225 1
306 86 225 0
307 106 225 0
308 193 226 0
309 224 226 1
310 186 227 0
311 145 228 1
312 160 228 0
313 14 229 1
314 258 231 0
315 270 231 0
316 97 232 0
317 47 233 0
318 155 233 0
319 58 235 1
320 210 235 1
321 119 237 0
322 130 238 0
323 67 239 0
324 220 239 0
325 80 240 1
326 152 240 0
327 56 242 0
328 30 243 1
329 254 243 1
330 140 244 0
331 230 244 1
332 92 246 1
333 117 246 0
334 220 246 0
335 50 248 0
336 145 249 0
337 194 250 0
338 184 251 0
339 71 252 0
340 175 252 1
341 250 252 0
342 226 253 0
343 15 255 0
344 36 255 1
345 120 256 0
346 83 257 0
347 104 257 0
348 170 257 0
349 208 258 0
350 99 259 0
351 162 259 0
352 9 260 0
353 82 260 0
354 152 260 0
355 253 260 0
356 21 261 0
357 267 261 0
358 44 262 0
359 16 263 1
360 141 264 1
361 210 264 0
362 220 264 0
363 9 268 1
364 175 268 1
365 79 270 0
366 50 271 0
367 267 271 1
368 196 272 1
369 239 272 1
370 113 273 1
371 68 274 1
372 127 274 0
373 187 275 0
374 243 276 1
375 140 277 0
376 89 278 0
377 108 278 0
378 219 279 0
379 229 279 0
380 150 280 0
381 160 280 0
382 32 281 0
383 178 282 0
384 11 283 0
385 200 283 0
386 156 284 0
387 30 285 0
388 201 285 0
389 58 289 1
390 23 290 1
391 130 290 1
392 67 291 0
393 100 291 0
394 257 291 0
395 3 292 0
396 237 292 0
397 46 293 0
398 221 294 1
399 246 296 1
400 181 297 1
401 28 299 1
402 178 299 0
403 200 299 1
404 266 299 1
405 73 300 0
406 266 300 0
407 39 301 1
408 108 301 0
409 109 301 0
410 115 301 0
411 137 301 0
412 215 301 1
413 259 302 0
414 188 304 1
415 190 304 0
416 167 307 0
417 133 308 0
418 143 309 0
419 126 310 0
420 94 312 0
421 238 312 0
422 60 315 0
423 14 316 0
424 85 316 1
425 41 317 0
426 73 317 0
427 221 318 0
428 245 318 0
429 6 319 1
430 78 319 0
431 118 319 0
432 183 319 0
433 67 320 0
434 152 321 0
435 126 323 1
436 6 324 0
437 156 324 0
438 55 325 0
439 113 325 0
440 208 325 0
441 137 326 0
442 248 326 0
443 46 328 1
444 266 329 0
445 17 330 0
446 177 330 0
447 218 330 0
448 149 331 0
449 83 333 0
450 193 333 0
451 231 333 0
452 24 334 1
453 31 335 0
454 223 336 0
455 66 337 1
456 90 337 1
457 102 337 0
458 26 339 0
459 166 339 0
460 77 340 0
461 258 340 0
462 268 344 0
463 63 345 0
464 140 346 1
465 198 346 1
466 30 348 0
467 113 348 1
468 220 348 0
469 130 349 0
470 133 349 0
471 238 349 0
472 5 350 0
473 80 350 1
474 179 350 1
475 200 350 0
476 150 352 1
477 97 354 0
478 223 354 1
479 253 354 0
480 181 356 0
481 246 356 0
482 16 358 0
483 103 359 1
484 30 360 0
485 40 360 0
486 58 360 0
487 169 360 1
488 200 361 0
489 180 362 0
490 266 362 0
491 100 365 0
492 64 366 1
493 187 366 0
494 146 367 1
495 80 368 1
496 159 368 0
497 161 368 0
498 220 368 0
499 1 369 0
500 103 369 1
501 115 373 1
502 210 373 0
503 248 374 1
504 259 374 1
505 131 375 1
506 35 376 1
507 122 376 1
508 56 378 0
509 210 378 0
510 238 378 1
511 15 379 0
512 50 379 0
513 85 379 0
514 182 379 1
515 94 381 0
516 266 383 0
517 44 384 0
518 74 384 0
519 80 384 0
520 191 384 0
521 130 385 1
522 169 385 0
523 258 385 1
524 177 389 0
525 210 391 0
526 13 392 0
527 160 392 0
528 209 392 0
529 102 393 0
530 30 394 0
531 67 395 1
532 227 397 0
533 4 398 0
534 35 398 1
535 118 398 0
536 123 398 0
537 205 399 1
538 250 399 0
539 60 400 0
540 68 400 0
541 131 400 0
542 141 400 1
543 166 400 1
544 212 400 1
545 230 400 0
546 245 400 0
547 71 401 0
548 12 404 0
549 240 404 0
550 251 404 0
551 27 405 0
552 92 406 0
553 183 406 0
554 38 410 1
555 266 410 1
556 127 411 0
557 83 412 0
558 152 413 0
559 192 413 0
560 7 415 1
561 55 416 0
562 42 418 1
563 107 418 0
564 114 419 0
565 150 419 0
566 105 420 0
567 230 420 0
568 13 421 0
569 56 421 1
570 146 421 0
571 174 421 0
572 185 421 0
573 194 421 1
574 241 421 0
575 164 422 0
576 9 423 0
577 141 423 0
578 96 424 0
579 43 425 0
580 25 431 0
581 201 431 0
582 230 432 1
583 257 432 1
584 132 434 0
585 263 434 0
586 33 435 0
587 119 435 0
588 86 436 0
589 178 436 0
590 64 437 0
591 129 437 0
592 231 437 1
593 216 438 0
594 32 439 0
595 239 439 0
596 11 440 0
597 46 440 0
598 52 440 0
599 73 440 0
600 140 442 1
601 145 442 0
602 259 442 0
603 119 443 0
604 207 443 1
605 162 444 1
606 215 445 1
607 106 447 1
608 245 447 0
609 123 448 0
610 180 450 0
611 30 451 1
612 61 451 0
613 77 453 0
614 151 453 0
615 200 453 0
616 222 453 0
617 99 455 0
618 182 456 0
619 83 457 1
620 265 458 0
621 112 459 0
622 127 459 1
623 264 459 0
624 8 460 1
625 255 460 0
626 25 462 0
627 58 462 0
628 105 462 0
629 200 462 0
630 141 463 0
631 165 464 0
632 197 464 1
633 153 465 1
634 66 466 1
635 242 466 0
636 135 467 0
637 218 467 0
638 12 468 0
639 174 468 0
640 9 469 1
641 79 469 1
642 188 469 0
643 239 475 1
644 80 476 0
645 48 478 0
646 140 479 0
647 221 480 0
648 32 481 0
649 99 481 0
650 186 481 0
651 133 483 0
652 30 484 0
653 154 484 1
654 164 485 0
655 57 486 0
656 249 486 0
657 96 487 0
658 250 487 0
659 27 488 0
660 70 489 1
661 108 489 0
662 174 489 0
663 237 489 0
664 198 491 0
665 10 492 0
666 123 492 0
667 207 492 1
668 210 493 0
669 120 494 0
670 224 495 0
671 40 498 1
672 10 499 0
673 187 499 0
674 208 499 0
675 76 500 0
676 214 500 0
677 262 500 0
678 29 501 1
679 48 501 0
680 63 501 0
681 90 501 0
682 262 501 0
683 10 503 0
684 112 504 0
685 56 506 0
686 135 506 0
687 246 508 0
688 30 509 1
689 155 509 1
690 67 510 0
691 86 510 1
692 90 512 1
693 171 513 0
694 226 513 0
695 127 517 0
696 233 518 0
697 2 519 1
698 82 519 1
699 121 519 0
700 154 519 0
701 160 519 0
702 208 519 1
703 231 519 0
704 1 520 1
705 40 520 0
706 58 520 0
707 103 520 0
708 200 520 1
709 28 521 0
710 143 521 1
711 252 521 0
712 260 521 1
713 95 525 0
714 253 525 1
715 230 527 0
716 198 528 1
717 243 528 0
718 42 533 1
719 109 533 1
720 117 533 0
721 130 534 0
722 76 535 1
723 188 536 1
724 216 536 0
725 14 538 0
726 142 538 0
727 167 539 1
728 233 539 0
729 263 539 0
730 180 540 0
731 180 541 0
732 64 542 0
733 96 543 1
734 15 544 1
735 39 544 0
736 52 544 1
737 107 545 0
738 9 546 0
739 72 546 0
740 143 546 0
741 193 546 0
742 208 547 0
743 68 548 0
744 247 549 0
745 47 550 0
746 183 552 0
747 22 553 1
748 138 553 0
749 157 553 1
750 167 553 0
751 228 553 0
752 213 555 0
753 252 557 0
754 118 558 0
755 121 558 1
756 207 559 0
757 84 560 1
758 70 561 1
759 83 562 0
760 50 564 0
761 30 565 0
762 157 565 0
763 171 565 0
764 215 565 1
765 50 566 0
766 141 568 1
767 260 569 0
768 94 570 0
769 8 571 0
770 169 571 0
771 251 574 0
772 38 576 0
773 130 577 0
774 132 577 0
775 240 578 0
776 76 579 0
777 114 579 0
778 12 580 0
779 105 580 1
780 184 580 0
781 199 580 1
782 229 580 0
783 231 580 1
EOF